2
9
16 21
1 10
1 16
13 10
16 10
10 10
13 21
13 16
4 19
38
10 19
13 4
4 21
13 7
20 4
1 21
1 7
7 16
10 13
16 4
10 4
10 7
7 21
20 10
1 13
16 13
20 7
10 21
20 19
13 13
7 10
4 4
7 4
7 19
20 13
16 16
20 16
1 19
13 19
4 16
4 13
10 16
4 7
4 10
16 7
1 4
7 7
16 19
